NAME 
ROWS
 N  OBJ
 L  R0      
 L  R1      
 E  R2      
COLUMNS
    MARKER    'MARKER'                 'INTORG'
    I0(3)     OBJ       -238
    I0(3)     R0        -314
    I0(3)     R1        -335
    I0(3)     R2        401
    I1(3)     OBJ       -941
    I1(3)     R0        -34
    I1(3)     R1        -326
    I1(3)     R2        878
    I2(3)     OBJ       -374
    I2(3)     R0        -412
    I2(3)     R1        -760
    I2(3)     R2        381
    I3(3)     OBJ       -993
    I3(3)     R0        -687
    I3(3)     R1        -746
    I3(3)     R2        160
    I4(3)     OBJ       -80
    I4(3)     R0        -26
    I4(3)     R1        -13
    I4(3)     R2        624
    I5(3)     OBJ       -96
    I5(3)     R0        -491
    I5(3)     R1        -785
    I5(3)     R2        394
    I6(3)     OBJ       -125
    I6(3)     R0        -783
    I6(3)     R1        -237
    I6(3)     R2        945
    I7(3)     OBJ       -225
    I7(3)     R0        -150
    I7(3)     R1        -795
    I7(3)     R2        860
    I8(3)     OBJ       -291
    I8(3)     R0        -715
    I8(3)     R1        -935
    I8(3)     R2        189
    I9(3)     OBJ       -667
    I9(3)     R0        -73
    I9(3)     R1        -952
    I9(3)     R2        879
    I10(3)    OBJ       -886
    I10(3)    R0        -817
    I10(3)    R1        -868
    I10(3)    R2        812
    I11(3)    OBJ       -746
    I11(3)    R0        -601
    I11(3)    R1        -752
    I11(3)    R2        56
    I12(3)    OBJ       -657
    I12(3)    R0        -819
    I12(3)    R1        -552
    I12(3)    R2        630
    I13(3)    OBJ       -726
    I13(3)    R0        -473
    I13(3)    R1        -686
    I13(3)    R2        363
    I14(3)    OBJ       -196
    I14(3)    R0        -326
    I14(3)    R1        -224
    I14(3)    R2        742
    I15(3)    OBJ       -899
    I15(3)    R0        -14
    I15(3)    R1        -878
    I15(3)    R2        854
    I16(3)    OBJ       -195
    I16(3)    R0        -371
    I16(3)    R1        -700
    I16(3)    R2        240
    I17(3)    OBJ       -88
    I17(3)    R0        -521
    I17(3)    R1        -595
    I17(3)    R2        441
    I18(3)    OBJ       -433
    I18(3)    R0        -101
    I18(3)    R1        -398
    I18(3)    R2        449
    I19(3)    OBJ       -723
    I19(3)    R0        -804
    I19(3)    R1        -801
    I19(3)    R2        638
    I20(3)    OBJ       -292
    I20(3)    R0        -244
    I20(3)    R1        -399
    I20(3)    R2        242
    I21(3)    OBJ       -80
    I21(3)    R0        -393
    I21(3)    R1        -641
    I21(3)    R2        848
    I22(3)    OBJ       -862
    I22(3)    R0        -884
    I22(3)    R1        -193
    I22(3)    R2        278
    I23(3)    OBJ       -95
    I23(3)    R0        -105
    I23(3)    R1        -283
    I23(3)    R2        435
    I24(3)    OBJ       -877
    I24(3)    R0        -487
    I24(3)    R1        -745
    I24(3)    R2        130
    I25(3)    OBJ       -826
    I25(3)    R0        -761
    I25(3)    R1        -680
    I25(3)    R2        23
    I26(3)    OBJ       -377
    I26(3)    R0        -930
    I26(3)    R1        -44
    I26(3)    R2        114
    I27(3)    OBJ       -252
    I27(3)    R0        -864
    I27(3)    R1        -675
    I27(3)    R2        173
    I28(3)    OBJ       -797
    I28(3)    R0        -12
    I28(3)    R1        -544
    I28(3)    R2        697
    I29(3)    OBJ       -471
    I29(3)    R0        -726
    I29(3)    R1        -56
    I29(3)    R2        657
    I30(1)    R2        1
    MARKER    'MARKER'                 'INTEND'
RHS
    RHS1      R0        -10243
    RHS1      R1        -11619
    RHS1      R2        7266
BOUNDS
 UP BND1      I0(3)     1
 UP BND1      I1(3)     1
 UP BND1      I2(3)     1
 UP BND1      I3(3)     1
 UP BND1      I4(3)     1
 UP BND1      I5(3)     1
 UP BND1      I6(3)     1
 UP BND1      I7(3)     1
 UP BND1      I8(3)     1
 UP BND1      I9(3)     1
 UP BND1      I10(3)    1
 UP BND1      I11(3)    1
 UP BND1      I12(3)    1
 UP BND1      I13(3)    1
 UP BND1      I14(3)    1
 UP BND1      I15(3)    1
 UP BND1      I16(3)    1
 UP BND1      I17(3)    1
 UP BND1      I18(3)    1
 UP BND1      I19(3)    1
 UP BND1      I20(3)    1
 UP BND1      I21(3)    1
 UP BND1      I22(3)    1
 UP BND1      I23(3)    1
 UP BND1      I24(3)    1
 UP BND1      I25(3)    1
 UP BND1      I26(3)    1
 UP BND1      I27(3)    1
 UP BND1      I28(3)    1
 UP BND1      I29(3)    1
 LI BND1      I30(1)    0
ENDATA
